p cnf 109 346
-9 -33 0
-10 -33 0
9 10 33 0
9 10 -34 0
-9 -10 -34 0
-9 10 34 0
9 -10 34 0
33 -35 0
-11 -35 0
11 -33 35 0
11 -33 -36 0
-11 33 -36 0
11 33 36 0
-11 -33 36 0
35 -37 0
-12 -37 0
12 -35 37 0
12 -35 -38 0
-12 35 -38 0
12 35 38 0
-12 -35 38 0
37 -39 0
-13 -39 0
13 -37 39 0
13 -37 -40 0
-13 37 -40 0
13 37 40 0
-13 -37 40 0
39 -41 0
-14 -41 0
14 -39 41 0
14 -39 -42 0
-14 39 -42 0
14 39 42 0
-14 -39 42 0
41 -43 0
-15 -43 0
15 -41 43 0
15 -41 -44 0
-15 41 -44 0
15 41 44 0
-15 -41 44 0
43 -45 0
-16 -45 0
16 -43 45 0
16 -43 -46 0
-16 43 -46 0
16 43 46 0
-16 -43 46 0
12 -47 0
9 -47 0
-9 -12 47 0
-9 -12 -48 0
9 12 -48 0
9 -12 48 0
-9 12 48 0
-10 -13 49 0
-13 -47 49 0
-10 -47 49 0
10 13 -49 0
13 47 -49 0
10 47 -49 0
13 -49 -50 0
10 -49 -50 0
47 -49 -50 0
-13 49 50 0
-10 49 50 0
-47 49 50 0
-10 -13 -47 50 0
10 13 47 -50 0
-11 -14 51 0
-14 -49 51 0
-11 -49 51 0
11 14 -51 0
14 49 -51 0
11 49 -51 0
14 -51 -52 0
11 -51 -52 0
49 -51 -52 0
-14 51 52 0
-11 51 52 0
-49 51 52 0
-11 -14 -49 52 0
11 14 49 -52 0
-12 -15 53 0
-15 -51 53 0
-12 -51 53 0
12 15 -53 0
15 51 -53 0
12 51 -53 0
15 -53 -54 0
12 -53 -54 0
51 -53 -54 0
-15 53 54 0
-12 53 54 0
-51 53 54 0
-12 -15 -51 54 0
12 15 51 -54 0
-13 -16 55 0
-16 -53 55 0
-13 -53 55 0
13 16 -55 0
16 53 -55 0
13 53 -55 0
16 -55 -56 0
13 -55 -56 0
53 -55 -56 0
-16 55 56 0
-13 55 56 0
-53 55 56 0
-13 -16 -53 56 0
13 16 53 -56 0
14 -57 0
55 -57 0
-14 -55 57 0
-14 -55 -58 0
14 55 -58 0
-14 55 58 0
14 -55 58 0
15 -59 0
57 -59 0
-15 -57 59 0
-15 -57 -60 0
15 57 -60 0
-15 57 60 0
15 -57 60 0
16 -61 0
59 -61 0
-16 -59 61 0
-16 -59 -62 0
16 59 -62 0
-16 59 62 0
16 -59 62 0
-9 -63 0
-10 -63 0
9 10 63 0
9 10 -64 0
-9 -10 -64 0
-9 10 64 0
9 -10 64 0
63 -65 0
-11 -65 0
11 -63 65 0
11 -63 -66 0
-11 63 -66 0
11 63 66 0
-11 -63 66 0
65 -67 0
-48 -67 0
48 -65 67 0
48 -65 -68 0
-48 65 -68 0
48 65 68 0
-48 -65 68 0
67 -69 0
-50 -69 0
50 -67 69 0
50 -67 -70 0
-50 67 -70 0
50 67 70 0
-50 -67 70 0
69 -71 0
-52 -71 0
52 -69 71 0
52 -69 -72 0
-52 69 -72 0
52 69 72 0
-52 -69 72 0
71 -73 0
-54 -73 0
54 -71 73 0
54 -71 -74 0
-54 71 -74 0
54 71 74 0
-54 -71 74 0
73 -75 0
-56 -75 0
56 -73 75 0
56 -73 -76 0
-56 73 -76 0
56 73 76 0
-56 -73 76 0
75 -77 0
-58 -77 0
58 -75 77 0
58 -75 -78 0
-58 75 -78 0
58 75 78 0
-58 -75 78 0
77 -79 0
-60 -79 0
60 -77 79 0
60 -77 -80 0
-60 77 -80 0
60 77 80 0
-60 -77 80 0
79 -81 0
-62 -81 0
62 -79 81 0
62 -79 -82 0
-62 79 -82 0
62 79 82 0
-62 -79 82 0
81 -83 0
-61 -83 0
61 -81 83 0
61 -81 -84 0
-61 81 -84 0
61 81 84 0
-61 -81 84 0
3 -85 0
9 -85 0
-3 -9 85 0
-3 -9 -86 0
3 9 -86 0
-3 9 86 0
3 -9 86 0
-4 -10 87 0
-4 -85 87 0
-10 -85 87 0
4 10 -87 0
4 85 -87 0
10 85 -87 0
4 -87 -88 0
10 -87 -88 0
85 -87 -88 0
-4 87 88 0
-10 87 88 0
-85 87 88 0
-4 -10 -85 88 0
4 10 85 -88 0
-5 -11 89 0
-5 -87 89 0
-11 -87 89 0
5 11 -89 0
5 87 -89 0
11 87 -89 0
5 -89 -90 0
11 -89 -90 0
87 -89 -90 0
-5 89 90 0
-11 89 90 0
-87 89 90 0
-5 -11 -87 90 0
5 11 87 -90 0
-6 -48 91 0
-6 -89 91 0
-48 -89 91 0
6 48 -91 0
6 89 -91 0
48 89 -91 0
6 -91 -92 0
48 -91 -92 0
89 -91 -92 0
-6 91 92 0
-48 91 92 0
-89 91 92 0
-6 -48 -89 92 0
6 48 89 -92 0
-7 -50 93 0
-7 -91 93 0
-50 -91 93 0
7 50 -93 0
7 91 -93 0
50 91 -93 0
7 -93 -94 0
50 -93 -94 0
91 -93 -94 0
-7 93 94 0
-50 93 94 0
-91 93 94 0
-7 -50 -91 94 0
7 50 91 -94 0
-8 -52 95 0
-8 -93 95 0
-52 -93 95 0
8 52 -95 0
8 93 -95 0
52 93 -95 0
8 -95 -96 0
52 -95 -96 0
93 -95 -96 0
-8 95 96 0
-52 95 96 0
-93 95 96 0
-8 -52 -93 96 0
8 52 93 -96 0
54 -97 0
95 -97 0
-54 -95 97 0
-54 -95 -98 0
54 95 -98 0
-54 95 98 0
54 -95 98 0
56 -99 0
97 -99 0
-56 -97 99 0
-56 -97 -100 0
56 97 -100 0
-56 97 100 0
56 -97 100 0
58 -101 0
99 -101 0
-58 -99 101 0
-58 -99 -102 0
58 99 -102 0
-58 99 102 0
58 -99 102 0
60 -103 0
101 -103 0
-60 -101 103 0
-60 -101 -104 0
60 101 -104 0
-60 101 104 0
60 -101 104 0
62 -105 0
103 -105 0
-62 -103 105 0
-62 -103 -106 0
62 103 -106 0
-62 103 106 0
62 -103 106 0
61 -107 0
105 -107 0
-61 -105 107 0
-61 -105 -108 0
61 105 -108 0
-61 105 108 0
61 -105 108 0
1 -109 0
-2 -109 0
86 -109 0
-88 -109 0
-90 -109 0
-92 -109 0
94 -109 0
96 -109 0
-98 -109 0
-100 -109 0
-102 -109 0
-104 -109 0
-106 -109 0
-107 -109 0
-108 -109 0
-1 2 -86 88 90 92 -94 -96 98 100 102 104 106 107 108 109 0
109 0
c main::$tmp::return_value_nondet_char!0@1#1 17 18 19 20 21 22 23 24
c symex::nondet1 9 10 11 12 13 14 15 16
c symex::nondet0 1 2 3 4 5 6 7 8
c main::$tmp::return_value_nondet_char$0!0@1#2 9 10 11 12 13 14 15 16
c __CPROVER_rounding_mode!0#1 FALSE FALSE FALSE FALSE FALSE FALSE FALSE FALSE FALSE FALSE FALSE FALSE FALSE FALSE FALSE FALSE FALSE FALSE FALSE FALSE FALSE FALSE FALSE FALSE FALSE FALSE FALSE FALSE FALSE FALSE FALSE FALSE
c main::$tmp::return_value_nondet_char$0!0@1#1 25 26 27 28 29 30 31 32
c __CPROVER_memory_leak#1 FALSE FALSE FALSE FALSE FALSE FALSE FALSE FALSE FALSE FALSE FALSE FALSE FALSE FALSE FALSE FALSE FALSE FALSE FALSE FALSE FALSE FALSE FALSE FALSE FALSE FALSE FALSE FALSE FALSE FALSE FALSE FALSE FALSE FALSE FALSE FALSE FALSE FALSE FALSE FALSE FALSE FALSE FALSE FALSE FALSE FALSE FALSE FALSE FALSE FALSE FALSE FALSE FALSE FALSE FALSE FALSE FALSE FALSE FALSE FALSE FALSE FALSE FALSE FALSE
c __CPROVER_max_malloc_size#1 FALSE FALSE FALSE FALSE FALSE FALSE FALSE FALSE FALSE FALSE FALSE FALSE FALSE FALSE FALSE FALSE FALSE FALSE FALSE FALSE FALSE FALSE FALSE FALSE FALSE FALSE FALSE FALSE FALSE FALSE FALSE FALSE FALSE FALSE FALSE FALSE FALSE FALSE FALSE FALSE FALSE FALSE FALSE FALSE FALSE FALSE FALSE FALSE FALSE FALSE FALSE FALSE FALSE FALSE FALSE TRUE FALSE FALSE FALSE FALSE FALSE FALSE FALSE FALSE
c __CPROVER_deallocated#1 FALSE FALSE FALSE FALSE FALSE FALSE FALSE FALSE FALSE FALSE FALSE FALSE FALSE FALSE FALSE FALSE FALSE FALSE FALSE FALSE FALSE FALSE FALSE FALSE FALSE FALSE FALSE FALSE FALSE FALSE FALSE FALSE FALSE FALSE FALSE FALSE FALSE FALSE FALSE FALSE FALSE FALSE FALSE FALSE FALSE FALSE FALSE FALSE FALSE FALSE FALSE FALSE FALSE FALSE FALSE FALSE FALSE FALSE FALSE FALSE FALSE FALSE FALSE FALSE
c main::$tmp::return_value_nondet_char!0@1#2 1 2 3 4 5 6 7 8
c __CPROVER_dead_object#1 FALSE FALSE FALSE FALSE FALSE FALSE FALSE FALSE FALSE FALSE FALSE FALSE FALSE FALSE FALSE FALSE FALSE FALSE FALSE FALSE FALSE FALSE FALSE FALSE FALSE FALSE FALSE FALSE FALSE FALSE FALSE FALSE FALSE FALSE FALSE FALSE FALSE FALSE FALSE FALSE FALSE FALSE FALSE FALSE FALSE FALSE FALSE FALSE FALSE FALSE FALSE FALSE FALSE FALSE FALSE FALSE FALSE FALSE FALSE FALSE FALSE FALSE FALSE FALSE
